3082672
200,86,177,149,61,212,214,7,67,31,218,184,179,27,133,28,50,55,197,29,11,134,19,132,188,25,52,72,209,180,105,141,24,106,190,99,202,56,53,92,100,41,121,158,74,176,146,103,33,199,167,80,15,156,211,97,98,164,135,127,124,10,147,196,215,89,142,12,168,58,3,195,43,208,38,187,62,78,40,130,91,205,161,34,37,22,47,14,174,115,139,194,85,203,224,170,150,171,186,109,9,111,143,178,110,193,138,189,226,198,46,26,169,70,220,210,102,117,159,229,5,223,144,68,227,45,137,8,204,185,154,48,152,192,118,64,63,44,6,206,160,216,18,54,175,66,219,128,222,77,166,101,107,35,83,94,153,217,228,122,148,173,32,207,39,49,51,65,95,60,23,69,114,16,182,213,125,131,157,13,104,113,172,221,17,181,71,140,79,73,136,81,155,112,75,88,129,21,4,90,87,183,163,126,225,165,30,20,116,162,36,151,96,59,119,201,93,230,42,108,1,145,57,123,76,82,84,120,2,191